c This is QMaxSAT 2017 based on 14.07
c This is Glucose 3.0
c This is MiniSat 2.2.0
c WARNING: for repeatability, setting FPU to use double precision
c card = mrwto, comp = 0, pmodel = 0, narr = 2, mct = 16, verb = 0
cr firstCPXsol 0 0 0
c top = 214379
c |  Number of variables:    3662                                             |
c |  Number of clauses:      324004                                           |
c |  Weight of hard clauses: 214379                                           |
c |  Number of soft clauses: 480                                              |
c |  Number of unit soft clauses: 480                                         |
c |  Maximum Cardinality (by unit): 428756       (428756      )               |
c last restart ## conflicts  :  13 1167 
o 10699 | cpuTime 0.043569 s
c Sum of weights = 214378
c A number of soft clauses remained = 240
c MRWTO encoding for Pseudo-Boolean Constraints
c sizeMax=10699
c No.0 Divisor=11	generated by pow1
c No.1 Divisor=10	generated by pow1
c No.2 Divisor=11	generated by pow1
c No.3 Divisor=11	generated by pow1
c p0= 11	p1= 10	p2= 11	p3= 11	
c number of digits = 5
c linkingVar[0].size = 11, linkingVar[1].size = 10, linkingVar[2].size = 11, linkingVar[3].size = 9, linkingVar[4].size = 1, 
c Pseudo-Boolean Constraints: 6626 variables and 63589 clauses
c Sum of weights = 214378
c A number of soft clauses remained = 240
c MRWTO encoding for Pseudo-Boolean Constraints
c sizeMax=10699
c No.0 Divisor=11	generated by pow1
c No.1 Divisor=10	generated by pow1
c No.2 Divisor=11	generated by pow1
c No.3 Divisor=11	generated by pow1
c p0= 11	p1= 10	p2= 11	p3= 11	
c number of digits = 5
c linkingVar[0].size = 11, linkingVar[1].size = 10, linkingVar[2].size = 11, linkingVar[3].size = 9, linkingVar[4].size = 1, 
c Pseudo-Boolean Constraints: 6626 variables and 63589 clauses
c last restart ## conflicts  :  137 2180 
o 8556 | cpuTime 0.162358 s
c last restart ## conflicts  :  110 3237 
o 7314 | cpuTime 0.175313 s
c last restart ## conflicts  :  3 2123 
o 7257 | cpuTime 0.206507 s
c last restart ## conflicts  :  105 1985 
o 6775 | cpuTime 0.43797 s
c last restart ## conflicts  :  177 2582 
o 6625 | cpuTime 0.446908 s
c last restart ## conflicts  :  311 1698 
o 6567 | cpuTime 0.567524 s
c last restart ## conflicts  :  276 1696 
o 5957 | cpuTime 0.719439 s
c last restart ## conflicts  :  428 1509 
o 5670 | cpuTime 1.46671 s
c last restart ## conflicts  :  227 1756 
o 5652 | cpuTime 1.81433 s
c last restart ## conflicts  :  92 5231 
o 5632 | cpuTime 1.82044 s
c last restart ## conflicts  :  15 1621 
o 5502 | cpuTime 2.444 s
c last restart ## conflicts  :  99 1783 
o 5378 | cpuTime 2.77876 s
c last restart ## conflicts  :  1840 1389 
o 5345 | cpuTime 3.0036 s
c last restart ## conflicts  :  247 1398 
o 5273 | cpuTime 3.97365 s
c last restart ## conflicts  :  84 2079 
o 5225 | cpuTime 3.9918 s
c last restart ## conflicts  :  110 1534 
o 5207 | cpuTime 7.3487 s
c last restart ## conflicts  :  70 1624 
o 5179 | cpuTime 10.5193 s
c last restart ## conflicts  :  99 2120 
o 5157 | cpuTime 10.5272 s
c last restart ## conflicts  :  2444 1538 
o 5145 | cpuTime 62.2101 s
c last restart ## conflicts  :  209 1399 
o 5144 | cpuTime 62.2259 s
s OPTIMUM FOUND
cr positiVarArr: [ | 11@1(1->11) | 161@1(11->1) | 264@2(1->8) | 276@2(2->4) | 290@2(3->2) | 305@2(4->1) | 329@2(5->9) | 343@2(6->7) | 365@2(7->13) | 382@2(8->14) | 394@2(9->10) | 406@2(10->6) | 448@2(12->16) | 460@2(13->12) | 479@2(14->15) | 485@2(15->5) | 499@2(16->3) | ]
cr the 1-th chain: [ 1->11->1 ] (#non-depot=1) {#cumul.=2}
cr the 2-th chain: [ 1->8->14->15->5->9->10->6->7->13->12->16->3->2->4->1 ] (#non-depot=14) {#cumul.=16}
c Latest Answer = 0 by 21 loops
c restarts              : 8876
c conflicts             : 1846600        (14086 /sec)
c decisions             : 6394823        (0.00 % random) (48781 /sec)
c propagations          : 782245841      (5967128 /sec)
c conflict literals     : 118187540      (39.05 % deleted)
c Memory used           : 150.00 MB
c CPU time              : 131.093 s
